 Minimize
[ 1.0000000000000000 Z0 * Z3  ]
Subject to
c1: [ -2.1200000000000001 Z0 * Z0  + 34.3999999999999986 Z0 * Z1 -28.0000000000000036 Z0 * Z2  + 1.0000000000000000 Z0 * Z3 -116.9999999999999716 Z1 * Z1  + 240.0000000000000000 Z1 * Z2 -240.0000000000000000 Z1 * Z4 -100.0000000000000000 Z2 * Z2  + 200.0000000000000000 Z2 * Z4 -100.0000000000000000 Z4 * Z4  ] = 0.000000
ac1: Z0 - 1 = 0
ac2: [ 1.0000000000000000 Z0 * Z4 -1.0000000000000000 Z1 * Z1  ] = 0
Bounds
1 <= Z0 <= 1
0.0000000000000000 <= Z1 <= 200.0000000000000000
0.0000000000000000 <= Z2 <= 200.0000000000000000
-100000000.0000000000000000 <= Z3 <= 100000000.0000000000000000
0.0000000000000000 <= Z4 <= 40000.0000000000000000
Generals
Z1 Z2 
End